18 14 4 9 8 19 11 
18 6 3 15 14 3 11 9 7 4
3 19 17 6 20 2 11 10 
9 2 12 6 7 14 1 13 20 
13 18 10 19 2 3 5 4 9 4
10 13 5 3 9 8 4 14 7 
2 11 1 3 18 2 7 19 15 
15 12 7 19 13 17 2 1 20 14
14 5 9 13 12 12 2 19 8 
10 17 5 11 13 9 18 20 3 5
